data;

### SETS ###

set NODES :=
entry02
entry03
entry01
exit03
exit04
exit01
exit02
exit05
N05b
N08
N16
N05a
N01
N12
N05d
N10
N05
N04
N13
N101
N06
N09
N11
N05c
;

set SOURCES :=
entry02
entry03
entry01
;

set SINKS :=
exit03
exit04
exit01
exit02
exit05
;

set NAMES :=
L101
L19
L09
L14
L08
L102
L07f
L07a
L01
L07e
L07d
L20
L07c
L15
L12
L16
L13
L07b
L04
CS1
CS3
CS2
Conn01
re01
CV01
;

set ARCS :=
(entry03, entry02, L101)
(N16, exit03, L19)
(N06, N08, L09)
(N09, N11, L14)
(N06, exit01, L08)
(N05d, exit05, L102)
(N05b, N06, L07f)
(N05, N05a, L07a)
(entry01, N101, L01)
(N05d, N05b, L07e)
(N05c, N05b, L07d)
(N16, exit04, L20)
(N05a, N05d, L07c)
(N11, N13, L15)
(N09, N10, L12)
(N12, exit02, L16)
(N10, N13, L13)
(N05a, N05c, L07b)
(N01, N04, L04)
(N04, N05, CS1)
(N13, N16, CS3)
(N08, N09, CS2)
(entry02, N01, Conn01)
(N101, N01, re01)
(N11, N12, CV01)
;

set PIPES :=
(entry03, entry02, L101)
(N16, exit03, L19)
(N06, N08, L09)
(N09, N11, L14)
(N06, exit01, L08)
(N05d, exit05, L102)
(N05b, N06, L07f)
(N05, N05a, L07a)
(entry01, N101, L01)
(N05d, N05b, L07e)
(N05c, N05b, L07d)
(N16, exit04, L20)
(N05a, N05d, L07c)
(N11, N13, L15)
(N09, N10, L12)
(N12, exit02, L16)
(N10, N13, L13)
(N05a, N05c, L07b)
(N01, N04, L04)
;

set  COMPRESSORS:=
(N04, N05, CS1)
(N13, N16, CS3)
(N08, N09, CS2)
;

set  CONTROLVALVES:=
(N11, N12, CV01)
;

set  VALVES:=
;

set  SHORTPIPES:=
(entry02, N01, Conn01)
;

set  RESISTORS:=
(N101, N01, re01)
;

### PARAMS ###


# for NODES
param: FlowInOut PressureLower PressureUpper :=
entry02 137.15 30.0 70.0
entry03 180.56 30.0 70.0
entry01 226.614 30.0 70.0
exit03 -122.162 30.0 70.0
exit04 -122.162 30.0 70.0
exit01 -100.0 30.0 70.0
exit02 -100.0 20.0 35.0
exit05 -100.0 30.0 70.0
N05b 0 30.0 70.0
N08 0 30.0 70.0
N16 0 30.0 70.0
N05a 0 30.0 70.0
N01 0 30.0 70.0
N12 0 30.0 70.0
N05d 0 30.0 70.0
N10 0 30.0 70.0
N05 0 30.0 70.0
N04 0 30.0 70.0
N13 0 30.0 70.0
N101 0 30.0 70.0
N06 0 30.0 70.0
N09 0 30.0 70.0
N11 0 30.0 70.0
N05c 0 30.0 70.0
;

# for Mean molar mass
param AvgMolarMass = 0.019265018463268196
;
param AvgGasTemp =
274.207594373939
;
param AvgPressure =
49.99999999999999
;
param AvgPseudoPressure =
44.778070870387424
;
param AvgPseudoTemp =
189.03082447319863
;

# for SOURCES
param: CalorificValue GasTemperature MolarMass:=
entry02 33.90014191795135 10.0 18.5674
entry03 36.016229415056664 10.0 19.5
entry01 34.193375283648656 10.0 19.5
;

# for SINKS
param: FlowLowerNode FlowUpperNode :=
exit03 -900.0 0
exit04 -900.0 0
exit01 -900.0 0
exit02 -900.0 0
exit05 -900.0 0
;

# for ARCS
param: FlowLowerArc FlowUpperArc :=
entry03 entry02 L101 0.0 738.0
N16 exit03 L19 0.0 425.0
N06 N08 L09 0.0 1080.0
N09 N11 L14 0.0 540.0
N06 exit01 L08 0.0 425.0
N05d exit05 L102 0.0 738.0
N05b N06 L07f 0.0 1620.0
N05 N05a L07a 0.0 1620.0
entry01 N101 L01 0.0 738.0
N05d N05b L07e 0.0 1620.0
N05c N05b L07d 0.0 1620.0
N16 exit04 L20 0.0 425.0
N05a N05d L07c 0.0 1620.0
N11 N13 L15 0.0 360.0
N09 N10 L12 0.0 580.0
N12 exit02 L16 0.0 180.0
N10 N13 L13 0.0 540.0
N05a N05c L07b 0.0 1620.0
N01 N04 L04 0.0 1458.0
N04 N05 CS1 0.0 2100.0
N13 N16 CS3 0.0 2100.0
N08 N09 CS2 0.0 2100.0
entry02 N01 Conn01 0.0 720.0
N101 N01 re01 0.0 3000.0
N11 N12 CV01 0.0 1000.0
;

# for PIPES
param: Roughness Diameter Length e d :=
entry03 entry02 L101 1e-05 0.0011 50000.0 0.00000240388633741165 0.00000240388633741165
N16 exit03 L19 1e-05 0.0011 50000.0 0.00000240388633741165 0.00000240388633741165
N06 N08 L09 1e-05 0.0009 30000.0 0.00000172418524680058 0.00000172418524680058
N09 N11 L14 1.2e-05 0.00085 100000.0 0.00000141584774816937 0.00000141584774816937
N06 exit01 L08 1e-05 0.0009 30000.0 0.00000172418524680058 0.00000172418524680058
N05d exit05 L102 1e-05 0.0011 50000.0 0.00000240388633741165 0.00000240388633741165
N05b N06 L07f 1e-05 0.0009 30000.0 0.00000172418524680058 0.00000172418524680058
N05 N05a L07a 1e-05 0.0009 30000.0 0.00000172418524680058 0.00000172418524680058
entry01 N101 L01 1e-05 0.0011 50000.0 0.00000240388633741165 0.00000240388633741165
N05d N05b L07e 1e-05 0.0009 30000.0 0.00000172418524680058 0.00000172418524680058
N05c N05b L07d 1e-05 0.0009 30000.0 0.00000172418524680058 0.00000172418524680058
N16 exit04 L20 1e-05 0.0011 50000.0 0.00000240388633741165 0.00000240388633741165
N05a N05d L07c 1e-05 0.0009 30000.0 0.00000172418524680058 0.00000172418524680058
N11 N13 L15 1.2e-05 0.00085 50000.0 0.00000141584774816937 0.00000141584774816937
N09 N10 L12 1.2e-05 0.0009 100000.0 0.00000154733152914152 0.00000154733152914152
N12 exit02 L16 1e-05 0.0005 30000.0 7.02517941682094E-7 7.02517941682094E-7
N10 N13 L13 1.2e-05 0.0009 50000.0 0.00000154733152914152 0.00000154733152914152
N05a N05c L07b 1e-05 0.0009 30000.0 0.00000172418524680058 0.00000172418524680058
N01 N04 L04 1e-05 0.0021000000000000003 10000.0 0.00000757676709155151 0.00000757676709155151
;

# for COMPRESSORSTATIONS & CONTROLVAVES
param:  PressureChangeUpper PressureChangeLower :=
N04 N05 CS1 37.0 0
N13 N16 CS3 35.0 0
N08 N09 CS2 40.0 0
N11 N12 CV01 60.0 0
;